(set-logic QF_LRA)
(set-info :ran/ran_12_1_lia.smt2)
(set-info :smt-lib-version 2.0)
(declare-fun x0 () Real)
(declare-fun x1 () Real)
(declare-fun x2 () Real)
(declare-fun x3 () Real)
(declare-fun x4 () Real)
(declare-fun x5 () Real)
(declare-fun x6 () Real)
(declare-fun x7 () Real)
(declare-fun x8 () Real)
(declare-fun x9 () Real)
(declare-fun x10 () Real)
(declare-fun x11 () Real)
(define-fun ie0 () Bool (<= (+ (* 99 x9) (* 64 x2) ) 88))
(define-fun ie1 () Bool (<= (+ (* (- 31) x8) (* 59 x1) ) (- 91)))
(define-fun ie2 () Bool (<= (+ (* 99 x2) (* 81 x3) ) (- 52)))
(define-fun ie3 () Bool (<= (+ (* 17 x10) (* 64 x11) ) (- 95)))
(define-fun ie4 () Bool (<= (+ (* 1 x6) (* 79 x3) ) (- 42)))
(define-fun ie5 () Bool (<= (+ (* (- 18) x6) (* 27 x11) ) (- 99)))
(define-fun ie6 () Bool (<= (+ (* (- 46) x6) (* 30 x6) ) 8))
(define-fun ie7 () Bool (<= (+ (* (- 30) x7) (* 1 x5) ) 85))
(define-fun ie8 () Bool (<= (+ (* 10 x5) (* (- 9) x7) ) (- 60)))
(define-fun ie9 () Bool (<= (+ (* 39 x0) (* (- 86) x3) ) 71))
(define-fun ie10 () Bool (<= (+ (* 71 x5) (* 81 x3) ) (- 40)))
(define-fun ie11 () Bool (<= (+ (* (- 60) x9) (* 66 x3) ) (- 71)))
(assert ie0)
(assert ie1)
(assert ie2)
(assert ie3)
(assert ie4)
(assert ie5)
(assert ie6)
(assert ie7)
(assert ie8)
(assert ie9)
(assert ie10)
(assert ie11)
(check-sat)
(exit)
